c Sudoku solution
p cnf 729 0
217 0
254 0
329 0
366 0
371 0
382 0
414 0
451 0
497 0
552 0
575 0
615 0
631 0
659 0
668 0
761 0
786 0
856 0
872 0
692 0
888 0
944 0
564 0
965 0
742 0
463 0
445 0
489 0
973 0
128 0
313 0
811 0
221 0
141 0
737 0
987 0
991 0
958 0
753 0
718 0
243 0
285 0
348 0
357 0
155 0
335 0
134 0
394 0
849 0
867 0
833 0
177 0
183 0
581 0
684 0
593 0
676 0
478 0
538 0
519 0
623 0
527 0
546 0
647 0
939 0
774 0
895 0
799 0
725 0
824 0
279 0
298 0
196 0
112 0
236 0
169 0
262 0
916 0
922 0
426 0
432 0
